
Gurobi 12.0.2 (win64) logging started Mon Nov  3 17:45:59 2025

Set parameter LogFile to value "resultados DATA_1_n10m05b2d2\instancia_2_log.txt"
Set parameter TimeLimit to value 1800
Gurobi Optimizer version 12.0.2 build v12.0.2rc0 (win64 - Windows 10.0 (19045.2))

CPU model: Intel(R) Core(TM) i5-6300U CPU @ 2.40GHz, instruction set [SSE2|AVX|AVX2]
Thread count: 2 physical cores, 4 logical processors, using up to 4 threads

Non-default parameters:
TimeLimit  1800

Optimize a model with 389 rows, 1236 columns and 20609 nonzeros
Model fingerprint: 0x5c8e86a1
Variable types: 0 continuous, 1236 integer (1236 binary)
Coefficient statistics:
  Matrix range     [1e+00, 1e+00]
  Objective range  [2e-02, 6e-02]
  Bounds range     [1e+00, 1e+00]
  RHS range        [1e+00, 3e+01]
Found heuristic solution: objective 0.8120000
Presolve removed 0 rows and 709 columns
Presolve time: 0.07s
Presolved: 389 rows, 527 columns, 6767 nonzeros
Found heuristic solution: objective 0.5800000
Variable types: 0 continuous, 527 integer (527 binary)

Root relaxation: objective 1.000000e+00, 2102 iterations, 0.39 seconds (0.11 work units)

    Nodes    |    Current Node    |     Objective Bounds      |     Work
 Expl Unexpl |  Obj  Depth IntInf | Incumbent    BestBd   Gap | It/Node Time

H    0     0                       1.0000000    1.00000  0.00%     -    0s
     0     0    1.00000    0   13    1.00000    1.00000  0.00%     -    0s

Explored 1 nodes (2102 simplex iterations) in 0.58 seconds (0.14 work units)
Thread count was 4 (of 4 available processors)

Solution count 3: 1 0.812 0.58 

Optimal solution found (tolerance 1.00e-04)
Best objective 1.000000000000e+00, best bound 1.000000000000e+00, gap 0.0000%
